1
130
92
8
42
122
80
31
89
133
138
148
142
105
67
108
58
28
93
131
47
109
91
98
23
45
32
11
15
17
141
59
74
21
72
10
84
36
38
24
18
137
79
106
90
49
6
63
113
127
99
102
111
104
94
22
16
88
134
53
19
75
97
143
56
139
119
4
65
66
129
26
124
118
70
110
77
60
62
150
86
27
12
20
57
7
9
117
55
83
149
34
135
140
145
87
125
51
61
25
81
69
73
50
44
114
144
64
40
54
2
116
82
126
95
13
33
146
103
76
37
5
78
52
96
39
101
121
30
107
112
132
29
46
3
136
43
123
115
120
128
41
71
100
48
14
85
68
147
35
1
